\ LP format - for model browsing. Use MPS format to capture full model detail.
Minimize
  5.775146928531512 y_0 - 15.49704164342802 y_1 - 21.27218857195953 y_2
   + 10.9408283755609 y_3 - 3.443786732132878 y_4
   - 265.32444463149 Constant
Subject To
 g1: y_0 + 3 y_1 = 0
 g2: y_2 + y_3 - 2 y_4 = 0
 g3: y_1 - y_4 = 0
Bounds
 y_0 free
 y_1 free
 y_2 free
 y_3 free
 y_4 free
 Constant = 1
End
